NAME : arr.tsp
TIME : 2020-10-24 19:15:36
COMMENT : hello world
DIMENSION : 12
NODE_COORD_SECTION
0 85 70
1 149 45
2 158 127
3 164 183
4 64 163
5 22 191
6 16 133
7 30 63
8 25 28
9 76 43
10 158 160
11 91 91
EOF
